NAME : amz0760.145766_141266.tour
COMMENT : Cost = 145766_141266
COMMENT : Found by LKH-AMZ [Keld Helsgaun] Sun May 11 14:38:47 2025
COMMENT : TW viol.: 0 #: 0
TYPE : TOUR
DIMENSION : 121
TOUR_SECTION
38
46
36
117
51
24
47
29
19
96
45
42
18
101
89
2
27
53
14
112
77
109
98
15
76
48
44
106
16
35
93
64
30
26
67
43
13
55
3
84
52
31
95
65
60
49
104
57
1
80
81
40
9
25
115
63
33
56
10
5
87
61
70
39
62
8
78
58
68
82
12
119
28
17
91
20
100
121
59
34
4
54
107
22
108
118
41
92
66
102
69
97
71
111
6
113
50
75
116
103
90
99
83
85
105
32
88
114
7
72
79
23
73
37
120
11
94
86
21
74
110
-1
EOF
